results - Copia/log/URT_06_deadline_heurFalse.log

Gurobi 10.0.1 (win64) logging started Fri Oct  6 16:53:17 2023

Set parameter LogFile to value "./results//log/URT_06_deadline_heurFalse.log"
Gurobi Optimizer version 10.0.1 build v10.0.1rc0 (win64)

CPU model: AMD Ryzen 7 3700X 8-Core Processor, instruction set [SSE2|AVX|AVX2]
Thread count: 8 physical cores, 16 logical processors, using up to 16 threads

Optimize a model with 83 rows, 103 columns and 252 nonzeros
Model fingerprint: 0x0c70abd8
Model has 1 quadratic constraint
Variable types: 0 continuous, 103 integer (93 binary)
Coefficient statistics:
  Matrix range     [1e+00, 1e+07]
  QMatrix range    [1e+00, 1e+00]
  QLMatrix range   [1e+00, 8e+00]
  Objective range  [1e+00, 1e+00]
  Bounds range     [1e+00, 1e+00]
  RHS range        [1e+00, 3e+07]
Presolve removed 51 rows and 82 columns
Presolve time: 0.00s
Presolved: 32 rows, 21 columns, 90 nonzeros
Variable types: 0 continuous, 21 integer (12 binary)

Root relaxation: objective 2.400000e+01, 9 iterations, 0.00 seconds (0.00 work units)

    Nodes    |    Current Node    |     Objective Bounds      |     Work
 Expl Unexpl |  Obj  Depth IntInf | Incumbent    BestBd   Gap | It/Node Time

     0     0   24.00000    0    8          -   24.00000      -     -    0s
H    0     0                      70.0000000   24.00000  65.7%     -    0s

Cutting planes:
  Implied bound: 1
  RLT: 1
  Relax-and-lift: 5

Explored 1 nodes (9 simplex iterations) in 0.04 seconds (0.00 work units)
Thread count was 16 (of 16 available processors)

Solution count 1: 70 

Optimal solution found (tolerance 1.00e-04)
Best objective 7.000000000000e+01, best bound 7.000000000000e+01, gap 0.0000%
Warning: constraint name "precedence between 0,0 to 0,2 if x_[0,0,0,2,1]=0, i.e. 0,2 before 0,0" has a space
Warning: constraint name "precedence between 0,0 to 0,2 if x_[0,0,0,2,1]=0, i.e. 0,2 before 0,0" has a space
Warning: default constraint names used to write mps file
